[1] Reading Data...
[1] Solving...
Optimize a model with 17831 rows, 450 columns and 35662 nonzeros
Variable types: 0 continuous, 450 integer (450 binary)
Coefficient statistics:
  Matrix range     [1e+00, 1e+00]
  Objective range  [1e+00, 1e+00]
  Bounds range     [0e+00, 0e+00]
  RHS range        [1e+00, 1e+00]
Found heuristic solution: objective 21.0000000
Presolve removed 14360 rows and 0 columns
Presolve time: 0.48s
Presolved: 3471 rows, 450 columns, 20880 nonzeros
Variable types: 0 continuous, 450 integer (450 binary)

Root relaxation: objective 5.319801e+01, 2614 iterations, 1.50 seconds

    Nodes    |    Current Node    |     Objective Bounds      |     Work
 Expl Unexpl |  Obj  Depth IntInf | Incumbent    BestBd   Gap | It/Node Time

     0     0   53.19801    0  377   21.00000   53.19801   153%     -    2s
H    0     0                      22.0000000   53.19801   142%     -    2s
H    0     0                      23.0000000   53.19801   131%     -    2s
     0     0   30.45833    0  147   23.00000   30.45833  32.4%     -    4s
     0     0   30.45833    0  146   23.00000   30.45833  32.4%     -    4s
     0     0   30.00000    0  164   23.00000   30.00000  30.4%     -    4s
     0     0   30.00000    0  152   23.00000   30.00000  30.4%     -    4s
     0     0   30.00000    0  150   23.00000   30.00000  30.4%     -    4s
H    0     0                      24.0000000   30.00000  25.0%     -    4s
     0     0   30.00000    0  137   24.00000   30.00000  25.0%     -    4s
     0     0   30.00000    0  147   24.00000   30.00000  25.0%     -    5s
     0     0   30.00000    0  136   24.00000   30.00000  25.0%     -    5s
     0     0   30.00000    0  140   24.00000   30.00000  25.0%     -    5s
     0     0   30.00000    0  134   24.00000   30.00000  25.0%     -    5s
     0     0   30.00000    0  137   24.00000   30.00000  25.0%     -    6s
     0     0   30.00000    0  132   24.00000   30.00000  25.0%     -    6s
     0     0   30.00000    0  129   24.00000   30.00000  25.0%     -    6s
     0     0   30.00000    0  122   24.00000   30.00000  25.0%     -    6s
     0     0   30.00000    0  124   24.00000   30.00000  25.0%     -    7s
     0     0   30.00000    0  124   24.00000   30.00000  25.0%     -    7s
     0     2   30.00000    0  124   24.00000   30.00000  25.0%     -   10s
H   30    30                      25.0000000   30.00000  20.0%   205   11s
*   69    59              18      26.0000000   30.00000  15.4%   143   11s
H   88    59                      27.0000000   30.00000  11.1%   119   11s
H  139    68                      28.0000000   30.00000  7.14%  94.7   12s
   497   170   29.00000   16   46   28.00000   30.00000  7.14%  69.4   16s
   847   255   30.00000   17   64   28.00000   30.00000  7.14%  69.7   20s
  1427   393   29.03030   20   88   28.00000   30.00000  7.14%  68.5   25s
  2232   595   29.50000   14   77   28.00000   30.00000  7.14%  70.1   35s
  3221   828   29.50000   24  124   28.00000   30.00000  7.14%  70.8   42s
  3223   829   29.74107   15  345   28.00000   30.00000  7.14%  70.8   47s
  3225   831   29.91667   16  149   28.00000   30.00000  7.14%  70.7   50s
  3229   833   29.50000   25  133   28.00000   30.00000  7.14%  70.7   56s
  3237   839   29.70000   21  103   28.00000   30.00000  7.14%  70.5   60s
  3243   843   30.00000   20  123   28.00000   30.00000  7.14%  70.3   65s
  3247   850   30.00000   12  105   28.00000   30.00000  7.14%  76.6   70s
  3302   870   30.00000   19   72   28.00000   30.00000  7.14%  77.0   76s
  3781   987     cutoff   68        28.00000   30.00000  7.14%  75.4   80s
  3978  1014   29.00000   74   59   28.00000   30.00000  7.14%  74.1   85s
* 4074   673              67      29.0000000   30.00000  3.45%  73.4   85s
  4267   624   30.00000   14  346   29.00000   30.00000  3.45%  71.9   91s
  4269   626   30.00000   20  137   29.00000   30.00000  3.45%  71.9   95s
  4272   628   30.00000   15  149   29.00000   30.00000  3.45%  71.9  100s
  4276   630   30.00000   17  116   29.00000   30.00000  3.45%  71.8  105s
  4283   635   30.00000   20  121   29.00000   30.00000  3.45%  71.7  110s
  4287   638   30.00000   41  140   29.00000   30.00000  3.45%  71.6  115s
  4289   642   30.00000   22  126   29.00000   30.00000  3.45%  76.6  121s
  4295   646   30.00000   24  103   29.00000   30.00000  3.45%  76.8  126s
  4333   662   30.00000   29   73   29.00000   30.00000  3.45%  77.2  130s
  4744   670   30.00000   43   73   29.00000   30.00000  3.45%  77.6  135s
  5206   538 infeasible   34        29.00000   30.00000  3.45%  76.5  141s
  5412   455   30.00000   39   48   29.00000   30.00000  3.45%  76.1  147s
  5532   435   30.00000   41   71   29.00000   30.00000  3.45%  76.3  150s
  6267   263   30.00000   41   71   29.00000   30.00000  3.45%  74.2  155s
  6827   205   30.00000   48   82   29.00000   30.00000  3.45%  73.6  160s
  7357   289   30.00000   40   71   29.00000   30.00000  3.45%  73.0  166s
  7854   250   30.00000   49   73   29.00000   30.00000  3.45%  73.1  172s
  8352   344 infeasible   35        29.00000   30.00000  3.45%  72.9  176s
  8964   551   30.00000   42   60   29.00000   30.00000  3.45%  72.7  180s
  9540   630 infeasible   53        29.00000   30.00000  3.45%  72.9  186s
  9878   575   30.00000   50   81   29.00000   30.00000  3.45%  73.4  191s
 10525   552 infeasible   48        29.00000   30.00000  3.45%  73.8  195s
 10825   563   30.00000   50   57   29.00000   30.00000  3.45%  73.7  200s
 11248   465 infeasible   40        29.00000   30.00000  3.45%  73.7  205s
 11852   459 infeasible   39        29.00000   30.00000  3.45%  74.3  211s
 12163   508   30.00000   37   68   29.00000   30.00000  3.45%  74.3  216s
 12432   480   30.00000   44   70   29.00000   30.00000  3.45%  74.6  220s
 13228   498   30.00000   41   70   29.00000   30.00000  3.45%  75.0  226s
 13786   449 infeasible   43        29.00000   30.00000  3.45%  75.6  231s
 13993   463 infeasible   50        29.00000   30.00000  3.45%  75.8  236s
 14413   390 infeasible   56        29.00000   30.00000  3.45%  76.0  242s
 14816   439   30.00000   41   80   29.00000   30.00000  3.45%  76.1  245s
 15550   317   30.00000   49   60   29.00000   30.00000  3.45%  76.2  252s
 15925   373 infeasible   65        29.00000   30.00000  3.45%  76.4  256s
 16300   466 infeasible   35        29.00000   30.00000  3.45%  77.0  260s
 16835   434 infeasible   40        29.00000   30.00000  3.45%  77.1  265s
 17060   444 infeasible   31        29.00000   30.00000  3.45%  77.1  272s
 17147   382 infeasible   47        29.00000   30.00000  3.45%  77.1  278s
 17424   328   30.00000   50   82   29.00000   30.00000  3.45%  77.1  281s
 18107   315 infeasible   31        29.00000   30.00000  3.45%  77.5  287s
 18318   294 infeasible   35        29.00000   30.00000  3.45%  77.6  292s
 18550   238 infeasible   43        29.00000   30.00000  3.45%  77.8  296s
 18927   300   30.00000   47   93   29.00000   30.00000  3.45%  78.0  300s
 19552   313 infeasible   57        29.00000   30.00000  3.45%  78.4  309s
 19680   264   30.00000   37   73   29.00000   30.00000  3.45%  78.5  313s
 20133   363 infeasible   40        29.00000   30.00000  3.45%  78.6  317s
 20990   453   30.00000   45   59   29.00000   30.00000  3.45%  78.6  321s
 21456   359   30.00000   50   64   29.00000   30.00000  3.45%  78.4  327s
 21907   473 infeasible   47        29.00000   30.00000  3.45%  78.5  340s
 22245   359 infeasible   30        29.00000   30.00000  3.45%  78.4  345s
 22823   305 infeasible   63        29.00000   30.00000  3.45%  78.4  350s
 23446   243 infeasible   48        29.00000   30.00000  3.45%  78.5  358s
 23803   370   30.00000   34  124   29.00000   30.00000  3.45%  78.6  408s
 23805   371   30.00000   50  346   29.00000   30.00000  3.45%  78.6  412s
 23806   372   30.00000   33  140   29.00000   30.00000  3.45%  78.6  415s
 23809   374   30.00000   31  155   29.00000   30.00000  3.45%  78.6  420s
 23814   377   30.00000   38  126   29.00000   30.00000  3.45%  78.5  425s
 23820   381   30.00000   33  136   29.00000   30.00000  3.45%  78.5  430s
 23826   385   30.00000   33  125   29.00000   30.00000  3.45%  78.5  436s
 23830   388   30.00000   35  131   29.00000   30.00000  3.45%  78.5  441s
 23833   393   30.00000   33  115   29.00000   30.00000  3.45%  79.6  447s
 23835   395   30.00000   34   98   29.00000   30.00000  3.45%  79.6  450s
 23847   400   30.00000   36   92   29.00000   30.00000  3.45%  79.6  455s
 23879   410   30.00000   41   84   29.00000   30.00000  3.45%  79.6  460s
 24004   375   30.00000   47   59   29.00000   30.00000  3.45%  79.5  468s
 24199   324 infeasible   52        29.00000   30.00000  3.45%  79.6  471s
 24633   298   30.00000   66   64   29.00000   30.00000  3.45%  79.5  477s
 24683   280   30.00000   67   74   29.00000   30.00000  3.45%  79.5  481s
 24752   246   30.00000   68   48   29.00000   30.00000  3.45%  79.5  485s
 25233   113 infeasible   48        29.00000   30.00000  3.45%  79.6  490s
 25930   134   30.00000   57   84   29.00000   30.00000  3.45%  79.7  496s
 26249   249   30.00000   78   83   29.00000   30.00000  3.45%  79.8  500s
 26857   178 infeasible   72        29.00000   30.00000  3.45%  80.0  506s
*27195     9              67      30.0000000   30.00000  0.00%  79.9  509s

Cutting planes:
  Cover: 1
  Clique: 267
  Zero half: 3

Explored 27555 nodes (2212167 simplex iterations) in 509.09 seconds
Thread count was 4 (of 4 available processors)

Solution count 10: 30 29 28 ... 21

Optimal solution found (tolerance 1.00e-04)
Best objective 3.000000000000e+01, best bound 3.000000000000e+01, gap 0.0000%
[1] Generating Graphs:
[1] Generating: ./../results/frb30-15-4/frb30-15-4-Green.jpeg
[1] Generating: ./../results/frb30-15-4/frb30-15-4-Blue.jpeg
[1] Generating: ./../results/frb30-15-4/frb30-15-4-Orange.jpeg
[1] Generating: ./../results/frb30-15-4/frb30-15-4-Purple.jpeg
[1] Generating: ./../results/frb30-15-4/frb30-15-4-Pink.jpeg
[1] Generating: ./../results/frb30-15-4/frb30-15-4-Red.jpeg
[1] Done.
